76
125
100	7
99	9
98	7
97	4
96	11
95	8
94	9
93	13
92	13
91	10
90	9
89	8
88	6
87	8
86	14
85	15
84	11
83	6
82	15
81	9
80	9
79	11
78	16
77	9
76	8
75	8
74	10
73	14
72	12
71	6
70	11
69	13
68	11
67	12
66	9
65	8
64	4
63	14
62	8
61	8
60	9
59	11
58	13
57	7
56	8
55	8
54	11
53	13
52	4
51	8
50	11
49	10
48	8
47	12
46	9
45	8
44	14
43	11
42	12
41	9
40	13
39	8
38	9
37	5
36	13
35	10
34	14
33	11
32	8
31	7
30	12
29	7
28	12
27	10
26	14
25	8
